0000000000000000
0000000000000000
0001100000010000
0000110000010000
0000011000010000
0000011000110000
0000111100110000
0000110111100000
0001100011000000
0001100011000000
0001100001100000
0001100000110000
0001100000110000
0000000000000000
0000000000000000
0000000000000000
